
******************************************************************************
This program contains Ipopt, a library for large-scale nonlinear optimization.
 Ipopt is released as open source code under the Eclipse Public License (EPL).
         For more information visit http://projects.coin-or.org/Ipopt
******************************************************************************

This is Ipopt version 3.12.6, running with linear solver ma57.

Number of nonzeros in equality constraint Jacobian...:        0
Number of nonzeros in inequality constraint Jacobian.:       37
Number of nonzeros in Lagrangian Hessian.............:       15

Total number of variables............................:        5
                     variables with only lower bounds:        5
                variables with lower and upper bounds:        0
                     variables with only upper bounds:        0
Total number of equality constraints.................:        0
Total number of inequality constraints...............:       10
        inequality constraints with only lower bounds:       10
   inequality constraints with lower and upper bounds:        0
        inequality constraints with only upper bounds:        0

iter    objective    inf_pr   inf_du lg(mu)  ||d||  lg(rg) alpha_du alpha_pr  ls
   0  1.8883629e+01 0.00e+00 1.43e+01  -1.0 0.00e+00    -  0.00e+00 0.00e+00   0
   1 -2.0320569e+01 0.00e+00 2.13e+01  -1.0 2.25e+00    -  2.92e-02 7.11e-01f  1
   2 -2.9536964e+01 0.00e+00 1.24e+01  -1.0 5.55e+00    -  3.41e-01 4.08e-01f  1
   3 -3.1776884e+01 0.00e+00 7.38e-01  -1.0 8.01e-01    -  9.26e-01 1.00e+00f  1
   4 -3.1980522e+01 0.00e+00 2.18e-03  -1.0 2.12e-01    -  1.00e+00 1.00e+00f  1
   5 -3.2309502e+01 0.00e+00 2.38e-02  -2.5 1.89e-01    -  9.58e-01 1.00e+00f  1
   6 -3.2342883e+01 0.00e+00 1.11e-03  -3.8 8.72e-02    -  1.00e+00 1.00e+00f  1
   7 -3.2347212e+01 0.00e+00 1.61e-04  -3.8 3.33e-02    -  1.00e+00 1.00e+00f  1
   8 -3.2348608e+01 0.00e+00 1.12e-05  -5.7 8.79e-03    -  1.00e+00 1.00e+00f  1
Reallocating memory for MA57: lfact (527)
   9 -3.2348671e+01 0.00e+00 5.28e-08  -5.7 6.05e-04    -  1.00e+00 1.00e+00f  1
iter    objective    inf_pr   inf_du lg(mu)  ||d||  lg(rg) alpha_du alpha_pr  ls
  10 -3.2348679e+01 0.00e+00 6.43e-11  -8.6 2.07e-05    -  1.00e+00 1.00e+00f  1

Number of Iterations....: 10

                                   (scaled)                 (unscaled)
Objective...............:  -3.2348679157147004e+01   -3.2348679157147004e+01
Dual infeasibility......:   6.4258833692128008e-11    6.4258833692128008e-11
Constraint violation....:   0.0000000000000000e+00    0.0000000000000000e+00
Complementarity.........:   2.8345379230239728e-09    2.8345379230239728e-09
Overall NLP error.......:   2.8345379230239728e-09    2.8345379230239728e-09


Number of objective function evaluations             = 11
Number of objective gradient evaluations             = 11
Number of equality constraint evaluations            = 0
Number of inequality constraint evaluations          = 11
Number of equality constraint Jacobian evaluations   = 0
Number of inequality constraint Jacobian evaluations = 11
Number of Lagrangian Hessian evaluations             = 10
Total CPU secs in IPOPT (w/o function evaluations)   =      0.007
Total CPU secs in NLP function evaluations           =      0.000

EXIT: Optimal Solution Found.

************************ CUTEst statistics ************************


 Package used            :  IPOPT
 Problem                 :  HS86      
 # variables             =               5
 # constraints           =              10
 # objective functions   =        0.2300000E+02
 # objective gradients   =        0.1200000E+02
 # objective Hessians    =        0.1100000E+02
 # Hessian-vector prdct  =        0.0000000E+00
 # constraints functions =        0.2400000E+02
 # constraints gradients =        0.1300000E+02
 # constraints Hessians  =        0.1100000E+02
 Exit code               =               0
 Final f                 =  -0.3234868E+02
 Set up time             =            0.00 seconds
 Solve time              =            0.02 seconds


******************************************************************

System Time =       0.0049999999 s.
